c read Graph
c width = 149
c time = 243 ms
c width = 13
c time = 322 ms
c width = 12
c time = 389 ms
c width = 11
c time = 2475 ms
c width = 10
c time = 5529 ms
c width = 10
c time = 7967 ms
s td 187 11 200
b 1 181 182
b 2 19 20
b 3 1 2 3
b 4 1 3 22
b 5 15 17 38 39
b 6 15 37 38 39
b 7 15 37 39 59
b 8 37 57 58 59
b 9 142 162 163 184
b 10 142 163 164 184
b 11 142 164 184 186
b 12 15 35 36 37
b 13 142 143 144 164
b 14 164 165 166 186
b 15 3 5 22 24
b 16 5 7 22 24 26
b 17 7 9 22 24 26 28
b 18 9 22 24 26 28 50 72 94 96 98 119
b 19 22 24 26 28 48 50 72 94 96 98 119
b 20 22 24 25 26 48 50 72 94 96 98 119
b 21 22 24 25 44 48 50 72 94 96 98 119
b 22 22 25 42 44 48 50 72 94 96 98 119
b 23 25 42 44 46 48 50 72 94 96 98 119
b 24 42 44 46 48 49 50 72 94 96 98 119
b 25 42 44 46 47 48 49 72 94 96 98 119
b 26 42 44 46 47 49 66 72 94 96 98 119
b 27 42 43 44 47 49 66 72 94 96 98 119
b 28 42 43 47 49 62 66 72 94 96 98 119
b 29 43 47 49 62 64 66 72 94 96 98 119
b 30 47 49 62 64 66 68 72 94 96 98 119
b 31 49 62 64 66 68 70 72 94 96 98 119
b 32 62 64 66 68 70 72 92 94 96 98 119
b 33 62 64 66 68 70 90 92 94 96 98 119
b 34 62 64 66 68 88 90 92 94 96 98 119
b 35 62 64 66 88 90 92 94 96 97 98 119
b 36 62 64 66 88 90 92 94 95 96 97 119
b 37 62 64 66 88 90 92 93 94 95 97 119
b 38 62 64 66 88 90 91 92 93 95 97 119
b 39 62 64 66 88 90 91 93 95 97 110 119
b 40 62 64 66 88 91 93 95 97 110 112 119
b 41 62 64 66 88 93 95 97 110 112 114 119
b 42 62 64 66 88 95 97 110 112 114 116 119
b 43 62 64 66 88 97 110 112 114 116 118 119
b 44 62 64 66 88 110 112 114 116 118 119 138
b 45 62 64 66 88 110 112 114 116 119 136 138
b 46 62 64 66 88 110 112 114 119 134 136 138
b 47 62 64 66 88 110 112 119 132 134 136 138
b 48 62 64 66 88 110 119 132 134 136 138 159
b 49 62 64 66 88 110 132 134 136 138 158 159
b 50 62 64 66 88 110 132 134 135 136 158 159
b 51 62 64 66 88 110 132 134 135 154 158 159
b 52 62 64 66 88 110 132 135 154 156 158 159
b 53 62 64 66 88 110 132 154 156 158 159 178
b 54 62 64 66 88 110 132 154 156 159 176 178
b 55 62 64 66 88 110 132 154 159 176 178 196
b 56 62 64 66 88 110 132 154 174 176 178 196
b 57 62 64 66 88 110 132 152 154 174 178 196
b 58 62 64 66 86 88 110 132 152 174 196
b 59 64 65 66 86
b 60 152 153 154 174
b 61 174 175 176 196
b 62 159 176 178 196 198
b 63 159 178 179 198
b 64 176 177 178 198
b 65 154 155 156 176
b 66 156 157 158 178
b 67 132 133 134 154
b 68 136 137 138 158
b 69 119 138 139 159
b 70 110 111 112 132
b 71 112 113 114 134
b 72 114 115 116 119 136 138
b 73 116 117 118 138
b 74 88 89 90 110
b 75 66 67 68 88
b 76 68 69 70 90
b 77 70 71 72 92
b 78 44 45 46 66
b 79 22 23 24 44
b 80 26 27 28 48
b 81 9 28 50 72 74 94 96 98 119
b 82 72 73 74 94
b 83 9 28 50 52 72 74 96 98 119
b 84 50 51 52 72
b 85 9 28 32 50 52 74 96 98 119
b 86 9 32 52 74 76 96 98 119
b 87 9 32 52 54 74 76 98 119
b 88 52 53 54 74
b 89 9 32 54 76 79 98 119
b 90 79 98 99 119
b 91 9 13 32 54 76 79 98
b 92 13 32 54 57 76 79 98
b 93 57 76 77 79 98
b 94 57 77 78 79
b 95 13 32 35 54 57 76 79
b 96 13 35 57 59 79
b 97 13 15 35 57 59
b 98 15 35 37 57 59
b 99 13 32 34 35 54
b 100 32 33 34 54
b 101 35 54 55 57 76
b 102 35 55 56 57
b 103 9 11 13 32
b 104 74 75 76 96
b 105 9 28 30 32 50 52
b 106 30 31 32 52
b 107 28 29 30 50
b 108 62 64 86 88 108 110 132 152 174 196
b 109 62 64 84 86 108 110 132 152 174 196
b 110 62 84 86 106 108 110 132 152 174 196
b 111 62 84 102 104 106 128 150 152 174 196
b 112 62 84 106 108 110 128 132 150 152 174 196
b 113 86 87 88 108
b 114 106 107 108 128
b 115 102 104 106 128 150 152 172 174 196
b 116 102 104 106 128 150 172 174 192 196
b 117 102 104 106 128 150 170 172 192
b 118 170 171 172 192
b 119 102 104 106 128 148 150 170 192
b 120 148 149 150 170
b 121 102 104 106 126 128 148 170 192
b 122 126 127 128 148
b 123 102 104 126 148 168 170 188 192
b 124 102 104 126 146 148 168 188
b 125 102 104 124 126 146 168 188
b 126 102 103 104 124
b 127 102 124 146 166 168 188
b 128 166 167 168 188
b 129 102 124 144 146 166 188
b 130 102 124 142 144 166 188
b 131 102 123 124 142 144
b 132 102 122 123 142
b 133 142 144 166 186 188
b 134 142 144 164 166 186
b 135 144 145 146 166
b 136 124 125 126 146
b 137 146 147 148 168
b 138 168 170 188 190 192
b 139 168 169 170 190
b 140 104 105 106 126
b 141 172 174 192 194 196
b 142 172 173 174 194
b 143 150 151 152 172
b 144 108 110 128 130 132 150 152
b 145 108 109 110 130
b 146 130 131 132 152
b 147 128 129 130 150
b 148 62 63 64 84
b 149 84 85 86 106
b 150 62 83 84 102 104
b 151 62 82 83 102
b 152 196 197 198
b 153 194 195 196
b 154 192 193 194
b 155 190 191 192
b 156 188 189 190
b 157 186 187 188
b 158 184 185 186
b 159 179 198 199
b 160 179 199 200
b 161 161 162 184
b 162 161 183 184
b 163 161 182 183
b 164 159 179 180
b 165 141 142 162
b 166 139 159 160
b 167 121 122 142
b 168 119 139 140
b 169 101 102 122
b 170 99 119 120
b 171 81 82 102
b 172 79 99 100
b 173 61 62 82
b 174 59 79 80
b 175 41 42 62
b 176 39 59 60
b 177 21 22 42
b 178 17 19 40
b 179 17 39 40
b 180 17 18 19
b 181 15 16 17
b 182 13 14 15
b 183 11 12 13
b 184 9 10 11
b 185 7 8 9
b 186 5 6 7
b 187 3 4 5
1 163
2 178
3 4
4 15
5 181
5 179
5 6
6 7
7 176
7 98
8 98
9 165
9 161
9 10
10 11
11 158
11 134
12 98
13 134
14 134
15 187
15 16
16 186
16 17
17 185
17 18
18 81
18 19
19 80
19 20
20 21
21 79
21 22
22 177
22 23
23 24
24 25
25 26
26 78
26 27
27 28
28 175
28 29
29 30
30 31
31 32
32 77
32 33
33 76
33 34
34 75
34 35
35 36
36 37
37 38
38 39
39 74
39 40
40 41
41 42
42 43
43 44
44 73
44 45
45 72
45 46
46 71
46 47
47 70
47 48
48 69
48 49
49 68
49 50
50 51
51 67
51 52
52 53
53 66
53 54
54 65
54 55
55 62
55 56
56 61
56 57
57 58
57 60
58 108
58 59
62 152
62 63
62 64
63 164
63 159
69 168
69 166
81 82
81 83
83 85
83 84
85 105
85 86
86 104
86 87
87 88
87 89
89 90
89 91
90 172
90 170
91 103
91 92
92 93
92 95
93 94
95 96
95 99
95 101
96 174
96 97
97 182
97 98
99 100
101 102
103 184
103 183
105 107
105 106
108 113
108 109
109 148
109 110
110 149
110 112
111 115
111 150
111 112
112 114
112 144
115 143
115 116
116 141
116 117
117 118
117 119
119 120
119 121
121 140
121 122
121 123
123 138
123 124
124 137
124 125
125 126
125 136
125 127
127 128
127 129
129 135
129 130
130 131
130 133
131 132
132 169
132 167
133 157
133 134
138 156
138 155
138 139
141 154
141 153
141 142
144 145
144 147
144 146
150 151
151 173
151 171
159 160
161 162
162 163
178 180
178 179
